(set-logic BV) (define-fun origCir ((n226 Bool) (n120 Bool) (n217 Bool) (n168 Bool) (i_33 Bool)) Bool (and (and (not (or n217 n168)) (and (not n120) n226)) i_33)) (synth-fun skel ((n226 Bool) (n120 Bool) (n217 Bool) (n168 Bool) (i_33 Bool)) Bool) (declare-var n226 Bool) (declare-var n120 Bool) (declare-var n217 Bool) (declare-var n168 Bool) (declare-var i_33 Bool) (constraint (= (origCir n226 n120 n217 n168 i_33) (skel n226 n120 n217 n168 i_33))) (check-synth)
